; benchmark generated from python API
(set-info :status unknown)
(declare-datatypes ((RealState 0)) (((RMk1 (rval1 Real)) (RMk2 (rval2 Real)))))
 (assert
 (forall ((|v17:0| Real) )(forall ((|v16:1| Real) )(forall ((|v15:2| Real) )(forall ((|v14:3| Real) )(forall ((|v13:4| Real) )(forall ((|v12:5| Real) )(exists ((|v11:6_st| RealState) (val!8976 Real) )(exists ((|v10:7_st| RealState) (val!8977 Real) )(exists ((|v9:8_st| RealState) (val!8978 Real) )(exists ((|v8:9_st| RealState) (val!8979 Real) )(exists ((|v7:10_st| RealState) (val!8980 Real) )(exists ((|v6:11_st| RealState) (val!8981 Real) )(forall ((|v5:12| Real) )(forall ((|v4:13| Real) )(forall ((|v3:14| Real) )(forall ((|v2:15| Real) )(forall ((|v1:16| Real) )(forall ((|v0:17| Real) )(let ((?x175 (- 17.0)))
 (let ((?x5713 (- 10.0)))
 (let ((?x6478 (* ?x5713 |v2:15|)))
 (let ((?x7028 (* 13.0 |v0:17|)))
 (let ((?x8688 (- 7.0)))
 (let ((?x4928 (* ?x8688 |v16:1|)))
 (let ((?x298 (* 15.0 |v3:14|)))
 (let ((?x4449 (+ (+ (+ (+ (* ?x175 |v14:3|) (* 13.0 |v12:5|)) (* 12.0 |v0:17|)) ?x298) ?x4928)))
 (let ((?x3486 (- 12.0)))
 (let ((?x2527 (* 6.0 |v3:14|)))
 (let ((?x1253 (- 6.0)))
 (let ((?x5107 (* ?x1253 |v17:0|)))
 (let ((?x357 (rval2 |v8:9_st|)))
 (let ((?x4688 (- 4.0)))
 (let ((?x5849 (* ?x4688 ?x357)))
 (let ((?x197 (+ (+ (+ (* ?x5713 |v4:13|) (* 10.0 (rval2 |v9:8_st|))) (* 12.0 |v2:15|)) ?x5849)))
 (let (($x7561 (and (<= (+ (+ (+ ?x197 (* (- 18.0) (rval2 |v10:7_st|))) ?x5107) ?x2527) ?x3486) (<= (+ (+ ?x4449 ?x7028) ?x6478) ?x175))))
 (let ((?x1938 (- 11.0)))
 (let ((?x2594 (* 14.0 |v3:14|)))
 (let ((?x415 (+ (+ (+ (* (- 1.0) (rval2 |v7:10_st|)) (* 12.0 |v12:5|)) (* 7.0 |v17:0|)) (* ?x1253 (rval2 |v11:6_st|)))))
 (let (($x1760 (<= (+ (+ (+ ?x415 (* (- 2.0) ?x357)) (* 17.0 ?x357)) ?x2594) ?x1938)))
 (let ((?x5128 (- 9.0)))
 (let ((?x3158 (* ?x5128 |v13:4|)))
 (let ((?x6144 (* ?x1253 |v0:17|)))
 (let ((?x456 (+ (+ (+ (+ ?x4928 (* 17.0 |v13:4|)) (* 4.0 ?x357)) (* 16.0 |v1:16|)) (* (- 19.0) |v15:2|))))
 (let ((?x6171 (* 13.0 |v2:15|)))
 (let ((?x2230 (* 19.0 |v15:2|)))
 (let ((?x5981 (+ (+ (+ (* (- 18.0) |v13:4|) (* ?x8688 (rval2 |v11:6_st|))) (* 2.0 |v16:1|)) (* (- 14.0) |v14:3|))))
 (let (($x1571 (and (<= (+ (+ (+ ?x5981 (* 0.0 (rval2 |v7:10_st|))) ?x2230) ?x6171) ?x1938) (<= (+ (+ ?x456 ?x6144) ?x3158) 15.0))))
 (let ((?x2110 (* 14.0 |v1:16|)))
 (let ((?x2869 (+ (+ (+ (* ?x5128 |v17:0|) (* (- 19.0) |v3:14|)) (* 17.0 |v15:2|)) (* 8.0 (rval2 |v10:7_st|)))))
 (let (($x8099 (<= (+ (+ (+ ?x2869 ?x2110) (* ?x1938 |v13:4|)) (* (- 20.0) ?x357)) 7.0)))
 (let ((?x3572 (- 13.0)))
 (let ((?x1551 (* ?x8688 |v4:13|)))
 (let ((?x6390 (- 5.0)))
 (let ((?x1714 (* ?x6390 |v5:12|)))
 (let ((?x6324 (+ (+ (+ (* 17.0 |v15:2|) (* (- 16.0) |v15:2|)) (* ?x5128 ?x357)) (* 6.0 ?x357))))
 (let (($x2064 (and (or (<= (+ (+ (+ ?x6324 ?x1714) ?x1551) (* (- 19.0) ?x357)) ?x3572) $x8099) $x1571)))
 (let ((?x1333 (* 10.0 |v5:12|)))
 (let ((?x2287 (+ (+ (* 14.0 |v17:0|) (* 9.0 (rval2 |v6:11_st|))) (* (- 19.0) (rval2 |v11:6_st|)))))
 (let ((?x5481 (+ (+ (+ (+ ?x2287 (* ?x4688 (rval2 |v7:10_st|))) (* ?x6390 (rval2 |v9:8_st|))) ?x1333) (* (- 19.0) |v16:1|))))
 (let ((?x5690 (+ (+ (* ?x175 (rval2 |v7:10_st|)) (* ?x175 (rval2 |v10:7_st|))) (* (- 18.0) (rval2 |v11:6_st|)))))
 (let ((?x5541 (+ (+ (+ ?x5690 (* 5.0 |v13:4|)) (* 3.0 ?x357)) (* (- 8.0) (rval2 |v10:7_st|)))))
 (let ((?x3144 (rval2 |v6:11_st|)))
 (let ((?x5999 (- 16.0)))
 (let ((?x3527 (* ?x5999 ?x3144)))
 (let ((?x2097 (rval2 |v9:8_st|)))
 (let ((?x8999 (* ?x175 ?x2097)))
 (let ((?x6051 (* 4.0 |v0:17|)))
 (let ((?x6226 (+ (+ (* 11.0 (rval2 |v7:10_st|)) (* (- 15.0) ?x2097)) (* 7.0 (rval2 |v7:10_st|)))))
 (let (($x1918 (<= (+ (+ (+ (+ ?x6226 (* ?x5713 (rval2 |v7:10_st|))) ?x6051) ?x8999) ?x3527) ?x3572)))
 (let ((?x594 (* 18.0 |v4:13|)))
 (let ((?x4779 (+ (+ (+ (* 19.0 ?x3144) (* ?x5713 |v15:2|)) (* 9.0 |v4:13|)) (* (- 19.0) ?x2097))))
 (let (($x2234 (and (<= (+ (+ (+ ?x4779 (* (- 18.0) |v12:5|)) ?x594) ?x8999) 9.0) $x1918)))
 (let ((?x1511 (* ?x5128 |v5:12|)))
 (let ((?x5631 (* 17.0 ?x3144)))
 (let ((?x326 (+ (+ (+ (+ ?x5849 (* (- 19.0) |v1:16|)) (* ?x3572 ?x2097)) (* 12.0 |v15:2|)) ?x5631)))
 (let ((?x5042 (- 18.0)))
 (let ((?x1151 (* ?x5042 |v3:14|)))
 (let ((?x7155 (* 7.0 ?x2097)))
 (let ((?x8295 (* ?x5713 ?x3144)))
 (let ((?x3748 (* 2.0 |v14:3|)))
 (let ((?x6295 (+ (+ (+ (+ (* 20.0 |v12:5|) (* ?x1938 |v15:2|)) (* 7.0 |v16:1|)) ?x3748) ?x8295)))
 (let (($x680 (or (<= (+ (+ ?x6295 ?x7155) ?x1151) 13.0) (<= (+ (+ ?x326 ?x1511) (* (- 2.0) |v15:2|)) ?x1938))))
 (let ((?x2219 (- 20.0)))
 (let ((?x1397 (* ?x2219 |v3:14|)))
 (let ((?x8569 (+ (+ (+ ?x3158 (* 12.0 |v3:14|)) (* 3.0 |v14:3|)) (* (- 19.0) |v13:4|))))
 (let ((?x3944 (* 18.0 |v15:2|)))
 (let ((?x9 (- 1.0)))
 (let ((?x3325 (* ?x9 |v14:3|)))
 (let ((?x6339 (+ (+ (+ (* ?x9 |v12:5|) (* ?x6390 |v4:13|)) (* 18.0 (rval2 |v10:7_st|))) ?x3325)))
 (let (($x5094 (or (<= (+ (+ (+ ?x6339 ?x3325) (* (- 3.0) |v14:3|)) ?x3944) ?x3486) (<= (+ (+ (+ ?x8569 (* (- 2.0) |v13:4|)) ?x5849) ?x1397) ?x5042))))
 (let (($x4450 (and (and $x5094 $x680) (or $x2234 (and (<= (+ ?x5541 (* ?x3486 ?x3144)) ?x1938) (<= ?x5481 0.0))))))
 (let ((?x2067 (+ (+ (+ (+ |v15:2| (* 10.0 |v3:14|)) (* 3.0 |v15:2|)) (* ?x8688 |v12:5|)) (* 0.0 (rval2 |v11:6_st|)))))
 (let ((?x1446 (* 7.0 |v3:14|)))
 (let ((?x6571 (+ (+ (+ (* 9.0 |v1:16|) (* 20.0 |v13:4|)) (* 12.0 ?x3144)) (* (- 3.0) ?x2097))))
 (let (($x6156 (or (<= (+ (+ (+ ?x6571 ?x1446) (* ?x5128 |v12:5|)) (* ?x2219 |v17:0|)) 9.0) (<= (+ (+ ?x2067 (* ?x4688 |v16:1|)) (* ?x3572 |v12:5|)) 15.0))))
 (let ((?x72 (rval2 |v11:6_st|)))
 (let ((?x8643 (* 3.0 ?x72)))
 (let ((?x6977 (* 11.0 |v0:17|)))
 (let ((?x4342 (rval2 |v7:10_st|)))
 (let ((?x3931 (* ?x9 ?x4342)))
 (let ((?x5245 (+ (+ (+ (* 14.0 |v5:12|) (* 7.0 (rval2 |v10:7_st|))) (* 2.0 |v15:2|)) (* ?x175 ?x357))))
 (let ((?x5781 (* ?x4688 |v3:14|)))
 (let ((?x3580 (* 16.0 |v2:15|)))
 (let ((?x3149 (* ?x175 |v2:15|)))
 (let ((?x984 (+ (+ (+ (+ (* ?x8688 ?x357) (* 0.0 |v14:3|)) (* ?x3486 |v16:1|)) ?x3149) ?x3580)))
 (let (($x2168 (and (<= (+ (+ ?x984 ?x5781) (* ?x3486 (rval2 |v10:7_st|))) 17.0) (<= (+ (+ (+ ?x5245 ?x3931) ?x6977) ?x8643) 11.0))))
 (let ((?x7089 (* 9.0 |v3:14|)))
 (let ((?x6251 (* 8.0 ?x2097)))
 (let ((?x3042 (+ (+ (+ (+ (* ?x4688 ?x72) (* (- 15.0) |v12:5|)) (* ?x3486 |v5:12|)) ?x6251) (* 15.0 ?x72))))
 (let ((?x3988 (- 8.0)))
 (let ((?x518 (* 3.0 |v15:2|)))
 (let ((?x587 (+ (+ (+ (* ?x2219 ?x72) (* (- 14.0) ?x357)) (* 4.0 |v3:14|)) (* ?x175 |v15:2|))))
 (let (($x3964 (or (<= (+ (+ (+ ?x587 ?x518) (* 0.0 ?x2097)) (* 4.0 ?x72)) ?x3988) (<= (+ (+ ?x3042 (* ?x5999 ?x357)) ?x7089) 2.0))))
 (let ((?x3531 (- 15.0)))
 (let ((?x7036 (* 11.0 ?x4342)))
 (let ((?x5549 (* ?x5713 |v13:4|)))
 (let ((?x6841 (- 19.0)))
 (let ((?x4188 (* ?x6841 |v5:12|)))
 (let ((?x7596 (+ (+ (+ (+ ?x3944 (* 5.0 (rval2 |v10:7_st|))) (* (- 3.0) ?x4342)) ?x4188) ?x5549)))
 (let ((?x983 (- 14.0)))
 (let ((?x4593 (* 17.0 |v1:16|)))
 (let ((?x5695 (+ (+ (+ (+ (* ?x8688 (rval2 |v10:7_st|)) ?x3527) ?x7028) (* (- 2.0) |v16:1|)) (* (- 3.0) |v13:4|))))
 (let (($x1142 (or (<= (+ (+ ?x5695 ?x5549) ?x4593) ?x983) (<= (+ (+ ?x7596 ?x7036) ?x3325) ?x3531))))
 (let ((?x3514 (* ?x983 |v1:16|)))
 (let ((?x741 (* 11.0 |v13:4|)))
 (let ((?x3297 (+ (+ (+ (+ ?x2230 (* ?x4688 |v4:13|)) (* 13.0 |v16:1|)) ?x8295) (* ?x175 |v17:0|))))
 (let ((?x7885 (* 20.0 |v15:2|)))
 (let ((?x6460 (* ?x6390 |v4:13|)))
 (let ((?x8835 (+ (+ (+ (* ?x8688 |v12:5|) (* 3.0 |v5:12|)) (* 17.0 |v17:0|)) (* ?x3486 |v17:0|))))
 (let (($x2788 (or (<= (+ (+ (+ ?x8835 (* ?x2219 ?x2097)) ?x6460) ?x7885) 2.0) (<= (+ (+ ?x3297 ?x741) ?x3514) 10.0))))
 (let ((?x117 (* ?x4688 |v2:15|)))
 (let ((?x6793 (* ?x5128 |v2:15|)))
 (let ((?x5213 (+ (+ (+ (+ (* ?x983 |v5:12|) (* ?x983 ?x3144)) (* 2.0 |v5:12|)) ?x6793) (* ?x3486 ?x72))))
 (let ((?x5596 (* 20.0 |v0:17|)))
 (let ((?x3838 (* ?x5999 |v1:16|)))
 (let ((?x7550 (+ (+ (+ (+ (+ ?x1151 ?x741) (* 5.0 |v17:0|)) (* 18.0 |v14:3|)) ?x3838) (* ?x3572 |v17:0|))))
 (let (($x3229 (or (<= (+ ?x7550 ?x5596) 5.0) (<= (+ (+ ?x5213 ?x117) (* 20.0 |v14:3|)) ?x5128))))
 (let ((?x8400 (* 16.0 ?x4342)))
 (let ((?x2728 (* 19.0 |v0:17|)))
 (let ((?x1280 (+ (+ (+ (+ (* 9.0 |v14:3|) ?x72) (* 2.0 |v13:4|)) (* 2.0 |v13:4|)) ?x5631)))
 (let ((?x5389 (* 7.0 |v0:17|)))
 (let ((?x989 (+ (+ (+ (* ?x6841 |v4:13|) (* 17.0 (rval2 |v10:7_st|))) (* ?x1253 |v16:1|)) (* ?x6390 |v17:0|))))
 (let (($x5743 (and (<= (+ (+ (+ ?x989 (* 4.0 ?x2097)) (* 15.0 ?x3144)) ?x5389) ?x5713) (<= (+ (+ ?x1280 ?x2728) ?x8400) ?x6841))))
 (let ((?x6319 (+ (+ (+ (* 10.0 |v1:16|) (* ?x8688 |v3:14|)) (* (- 3.0) |v1:16|)) (* ?x3572 |v4:13|))))
 (let (($x4072 (<= (+ (+ (+ ?x6319 (* 11.0 |v2:15|)) (* 4.0 |v2:15|)) (* 20.0 |v3:14|)) 16.0)))
 (let ((?x7320 (* 14.0 |v0:17|)))
 (let ((?x8753 (+ (+ (+ (+ (* 12.0 |v16:1|) (* 10.0 ?x72)) (* ?x5128 ?x3144)) ?x7320) (* ?x983 (rval2 |v10:7_st|)))))
 (let (($x3558 (and (and (<= (+ (+ ?x8753 (* ?x3988 ?x2097)) (* ?x3988 |v13:4|)) 13.0) $x4072) $x5743)))
 (let (($x9005 (and (and $x3558 (and $x3229 $x2788)) (and (and $x1142 $x3964) (or $x2168 $x6156)))))
 (let ((?x4827 (* 10.0 |v14:3|)))
 (let ((?x7401 (+ (+ (+ (* ?x1938 ?x357) (* ?x1253 |v12:5|)) (* ?x3988 |v12:5|)) (* ?x3486 ?x4342))))
 (let (($x2093 (and (<= (+ (+ (+ ?x7401 (* 15.0 ?x357)) ?x4827) ?x5107) 17.0) (and (and $x9005 (and $x4450 (or $x2064 $x1760))) $x7561))))
 (let (($x4184 (not (= |v6:11_st| (RMk1 val!8981)))))
 (let (($x3947 (not (= |v7:10_st| (RMk1 val!8980)))))
 (let (($x3746 (not (= |v8:9_st| (RMk1 val!8979)))))
 (let (($x3505 (not (= |v9:8_st| (RMk1 val!8978)))))
 (let (($x1202 (not (= |v10:7_st| (RMk1 val!8977)))))
 (let (($x2351 (not (= |v11:6_st| (RMk1 val!8976)))))
 (and $x2351 $x1202 $x3505 $x3746 $x3947 $x4184 $x2093))))))))))))))))))))))))))))))))))))))))))))))))))))))))))))))))))))))))))))))))))))))))))))))))))))))))))))))))))))))))))))))))))))))))))))))
 )
 )
 )
 )
 )
 )
 )
 )
 )
 )
 )
 )
 )
 )
 )
 )
 )
 )
(check-sat)
